CVEs/CVE-2016-4487.smt2
(set-logic QF_AUFBV )
(declare-fun arg00 () (Array (_ BitVec 32) (_ BitVec 8) ) )
(declare-fun model_version () (Array (_ BitVec 32) (_ BitVec 8) ) )
(assert (let ( (?B1 (select  arg00 (_ bv1 32) ) ) (?B2 (select  arg00 (_ bv5 32) ) ) ) (let ( (?B3 ((_ sign_extend 24)  ?B1 ) ) ) (and  (and  (and  (and  (and  (and  (and  (and  (and  (and  (and  (and  (and  (and  (and  (and  (and  (bvsle  (_ bv32 32) ?B3 ) (bvsle  (_ bv32 32) ((_ sign_extend 24)  ?B2 ) ) ) (=  (_ bv1 32) (concat  (select  model_version (_ bv3 32) ) (concat  (select  model_version (_ bv2 32) ) (concat  (select  model_version (_ bv1 32) ) (select  model_version (_ bv0 32) ) ) ) ) ) ) (=  (_ bv95 8) (select  arg00 (_ bv0 32) ) ) ) (=  false (=  (_ bv90 8) ?B1 ) ) ) (=  false (=  (_ bv71 8) ?B1 ) ) ) (=  false (=  (_ bv95 8) ?B1 ) ) ) (=  false (=  (_ bv118 8) ?B1 ) ) ) (=  (_ bv81 8) ((_ extract 7  0)  ?B3 ) ) ) (=  false (=  (_ bv0 8) ?B1 ) ) ) (=  false (=  (_ bv36 8) ?B1 ) ) ) (=  false (=  (_ bv46 8) ?B1 ) ) ) (=  (_ bv46 8) (select  arg00 (_ bv2 32) ) ) ) (=  false (=  (_ bv75 8) ?B1 ) ) ) (=  false (=  (_ bv0 8) ?B2 ) ) ) (=  (_ bv95 8) (select  arg00 (_ bv3 32) ) ) ) (=  (_ bv95 8) (select  arg00 (_ bv4 32) ) ) ) (=  false (=  (_ bv95 8) ?B2 ) ) ) ) ) )
(check-sat)
(exit)
